c turning on binary mode checking
c parsing input formula with 259840 variables and 1039934 clauses
c finished parsing, read 3032402 bytes from proof file
c detected empty clause; start verification via backward checking
c 6983 of 1039934 clauses in core                            
c 2167 of 111532 lemmas in core using 55770 resolution steps
c 0 RAT lemmas in core; 282 redundant literals in core lemmas
s VERIFIED
c verification time: 1.361 seconds
